data/lp_files/q3/45_4.lp
\ Model foo
\ LP format - for model browsing. Use MPS format to capture full model detail.
Minimize
  z
Subject To
 allocateEach[1]: x[1,1] + x[2,1] + x[3,1] = 1
 allocateEach[2]: x[1,2] + x[2,2] + x[3,2] = 1
 allocateEach[3]: x[1,3] + x[2,3] + x[3,3] = 1
 allocateEach[4]: x[1,4] + x[2,4] + x[3,4] = 1
 allocateEach[5]: x[1,5] + x[2,5] + x[3,5] = 1
 allocateAllCash: cashProportion[1] + cashProportion[2] + cashProportion[3]
   = 1
 findWorstP[1,2]: z + 0.1251376514165582 cashProportion[1]
   - 0.1251376514165582 cashProportion[2] + 0.1944138552407648 x[1,1]
   + 0.4529482430673741 x[1,2] + 0.1305936530183201 x[1,3]
   + 0.089948943838222 x[1,4] + 0.00695765341876063 x[1,5]
   - 0.1944138552407648 x[2,1] - 0.4529482430673741 x[2,2]
   - 0.1305936530183201 x[2,3] - 0.089948943838222 x[2,4]
   - 0.00695765341876063 x[2,5] >= 0
 findWorstP[1,3]: z + 0.1251376514165582 cashProportion[1]
   - 0.1251376514165582 cashProportion[3] + 0.1944138552407648 x[1,1]
   + 0.4529482430673741 x[1,2] + 0.1305936530183201 x[1,3]
   + 0.089948943838222 x[1,4] + 0.00695765341876063 x[1,5]
   - 0.1944138552407648 x[3,1] - 0.4529482430673741 x[3,2]
   - 0.1305936530183201 x[3,3] - 0.089948943838222 x[3,4]
   - 0.00695765341876063 x[3,5] >= 0
 findWorstP[2,1]: z - 0.068246341996069 cashProportion[1]
   + 0.068246341996069 cashProportion[2] - 0.2729307709106792 x[1,1]
   - 0.1138075999126447 x[1,2] - 0.199634199606901 x[1,3]
   - 0.1656748198296571 x[1,4] - 0.1797062677440489 x[1,5]
   + 0.2729307709106792 x[2,1] + 0.1138075999126447 x[2,2]
   + 0.199634199606901 x[2,3] + 0.1656748198296571 x[2,4]
   + 0.1797062677440489 x[2,5] >= 0
 findWorstP[2,3]: z + 0.068246341996069 cashProportion[2]
   - 0.068246341996069 cashProportion[3] + 0.2729307709106792 x[2,1]
   + 0.1138075999126447 x[2,2] + 0.199634199606901 x[2,3]
   + 0.1656748198296571 x[2,4] + 0.1797062677440489 x[2,5]
   - 0.2729307709106792 x[3,1] - 0.1138075999126447 x[3,2]
   - 0.199634199606901 x[3,3] - 0.1656748198296571 x[3,4]
   - 0.1797062677440489 x[3,5] >= 0
 findWorstP[3,1]: z - 0.0787600025203201 cashProportion[1]
   + 0.0787600025203201 cashProportion[3] - 0.2215361350891564 x[1,1]
   - 0.2031062944994015 x[1,2] - 0.0127276164072837 x[1,3]
   - 0.2279944552958226 x[1,4] - 0.2558754961880159 x[1,5]
   + 0.2215361350891564 x[3,1] + 0.2031062944994015 x[3,2]
   + 0.0127276164072837 x[3,3] + 0.2279944552958226 x[3,4]
   + 0.2558754961880159 x[3,5] >= 0
 findWorstP[3,2]: z - 0.0787600025203201 cashProportion[2]
   + 0.0787600025203201 cashProportion[3] - 0.2215361350891564 x[2,1]
   - 0.2031062944994015 x[2,2] - 0.0127276164072837 x[2,3]
   - 0.2279944552958226 x[2,4] - 0.2558754961880159 x[2,5]
   + 0.2215361350891564 x[3,1] + 0.2031062944994015 x[3,2]
   + 0.0127276164072837 x[3,3] + 0.2279944552958226 x[3,4]
   + 0.2558754961880159 x[3,5] >= 0
Bounds
 z <= 1
 -infinity <= cashProportion[1] <= 1
 -infinity <= cashProportion[2] <= 1
 -infinity <= cashProportion[3] <= 1
Binaries
 x[1,1] x[1,2] x[1,3] x[1,4] x[1,5] x[2,1] x[2,2] x[2,3] x[2,4] x[2,5]
 x[3,1] x[3,2] x[3,3] x[3,4] x[3,5]
End
